SECTION Graph
Nodes 122
Edges 194
E 1 2 5
E 2 3 5
E 3 4 5
E 4 5 5
E 5 6 5
E 6 7 5
E 7 8 5
E 8 9 5
E 9 10 5
E 10 11 5
E 11 12 5
E 12 13 5
E 14 15 5
E 1 16 13
E 5 17 13
E 6 18 13
E 7 19 13
E 8 20 13
E 9 21 13
E 12 24 13
E 13 25 13
E 14 27 13
E 15 28 13
E 17 18 5
E 18 19 5
E 19 20 5
E 20 21 5
E 21 22 5
E 22 23 5
E 23 24 5
E 24 25 5
E 25 26 5
E 26 27 5
E 27 28 5
E 16 29 13
E 17 30 13
E 18 31 13
E 19 32 13
E 20 33 13
E 22 34 13
E 23 35 13
E 25 36 13
E 27 37 13
E 28 38 13
E 30 31 5
E 31 32 5
E 32 33 5
E 34 35 5
E 37 38 5
E 29 39 13
E 30 40 13
E 31 41 13
E 32 42 13
E 33 43 13
E 34 45 13
E 35 46 13
E 36 48 13
E 37 50 13
E 40 41 5
E 41 42 5
E 42 43 5
E 43 44 5
E 44 45 5
E 45 46 5
E 46 47 5
E 47 48 5
E 48 49 5
E 49 50 5
E 39 51 13
E 40 52 13
E 41 53 13
E 45 54 13
E 46 55 13
E 47 56 13
E 48 57 13
E 49 58 13
E 50 59 13
E 52 53 5
E 54 55 5
E 55 56 5
E 56 57 5
E 57 58 5
E 58 59 5
E 59 60 5
E 51 61 13
E 52 65 13
E 53 66 13
E 54 70 13
E 55 71 13
E 56 72 13
E 57 73 13
E 58 74 13
E 59 75 13
E 60 76 13
E 61 62 5
E 62 63 5
E 63 64 5
E 64 65 5
E 65 66 5
E 66 67 5
E 67 68 5
E 68 69 5
E 69 70 5
E 70 71 5
E 71 72 5
E 72 73 5
E 73 74 5
E 74 75 5
E 75 76 5
E 61 77 13
E 62 78 13
E 63 79 13
E 64 80 13
E 65 81 13
E 66 82 13
E 67 83 13
E 68 84 13
E 69 85 13
E 70 86 13
E 71 87 13
E 72 88 13
E 73 89 13
E 74 90 13
E 75 91 13
E 76 92 13
E 77 78 5
E 78 79 5
E 79 80 5
E 80 81 5
E 81 82 5
E 82 83 5
E 83 84 5
E 84 85 5
E 85 86 5
E 86 87 5
E 87 88 5
E 88 89 5
E 89 90 5
E 90 91 5
E 91 92 5
E 77 93 13
E 78 94 13
E 79 95 13
E 80 96 13
E 81 97 13
E 82 98 13
E 83 99 13
E 84 100 13
E 85 101 13
E 86 102 13
E 87 103 13
E 89 104 13
E 90 105 13
E 91 106 13
E 92 107 13
E 93 94 5
E 94 95 5
E 95 96 5
E 96 97 5
E 97 98 5
E 98 99 5
E 99 100 5
E 100 101 5
E 101 102 5
E 102 103 5
E 104 105 5
E 105 106 5
E 106 107 5
E 94 108 13
E 95 109 13
E 98 112 13
E 99 113 13
E 100 114 13
E 101 115 13
E 102 116 13
E 103 117 13
E 104 119 13
E 105 120 13
E 106 121 13
E 107 122 13
E 108 109 5
E 109 110 5
E 110 111 5
E 111 112 5
E 112 113 5
E 113 114 5
E 114 115 5
E 115 116 5
E 116 117 5
E 117 118 5
E 118 119 5
E 119 120 5
E 120 121 5
E 121 122 5
END

SECTION Terminals
Terminals 17
T 6
T 30
T 34
T 45
T 46
T 70
T 73
T 83
T 84
T 85
T 86
T 89
T 90
T 91
T 100
T 102
T 104
END

EOF
